NAME : instances/50-tsp/instance-33.tsp
COMMENT : No comment
TYPE : TSP
DIMENSION: 50
EDGE_WEIGHT_TYPE : EUC_2D
NODE_COORD_SECTION
1 781 417 
2 1714 771 
3 741 1413 
4 1783 1246 
5 44 1701 
6 1858 1005 
7 893 55 
8 1085 1176 
9 1640 777 
10 444 1810 
11 435 1606 
12 194 955 
13 395 162 
14 252 1788 
15 221 1111 
16 1592 1930 
17 374 669 
18 1894 1275 
19 489 6 
20 1170 192 
21 1169 1608 
22 1255 1525 
23 916 499 
24 454 1210 
25 1219 215 
26 1364 276 
27 1206 1477 
28 479 1745 
29 1276 1121 
30 20 1899 
31 954 1553 
32 170 1251 
33 1774 649 
34 471 946 
35 1316 1824 
36 1268 333 
37 1128 1336 
38 1551 1560 
39 1208 1461 
40 1692 599 
41 1207 413 
42 697 1177 
43 577 1316 
44 1821 726 
45 393 48 
46 308 1180 
47 1819 926 
48 94 1465 
49 1601 363 
50 1626 946 
EOF
